(set-info :smt-lib-version 2.6)
(set-logic QF_S)
(set-info :source |
Generated by: Hongjian Jiang, Oliver Markgraf, Daniel Stan, Anthony W. Lin, Philipp Ruemmer
Generated on: 2025-04-11
Application: Using String Solvers to solve RMC problems encoded as CHC over Strings
Target solver: cvc5, OSTRICH, Z3, Z3alpha, Z3-noodler
Time limit: 60.0
Benchmarks are extracted by running HornStr https://arg-git.informatik.uni-kl.de/pub/string-chc-lib on all benchmarks
provided in the repository and gathering the string queries sent to the string solvers.
|)
(set-info :license "https://creativecommons.org/licenses/by/4.0/")
(set-info :category "industrial")
(declare-fun Y () String)
(assert (let ((a!1 (re.union (re.union (re.union (str.to_re "m") (str.to_re "t"))
                               (str.to_re "n"))
                     (str.to_re "b"))))
  (str.in_re Y (re.* a!1))))
(declare-fun A () String)
(declare-fun C () String)
(declare-fun B () String)
(declare-fun X () String)
(assert (and true
     (= Y (str.++ A "t" C B))
     (= X (str.++ A C "t" B))
     (str.in_re A (re.* re.allchar))
     (str.in_re A re.allchar)
     (str.in_re B (re.* re.allchar))))
(push 1)
(assert (= X "b"))
(set-info :status unknown)
(check-sat)
(pop 1)
(push 1)
(assert (= X "t"))
(set-info :status unknown)
(check-sat)
(pop 1)
(push 1)
(assert (= X "m"))
(set-info :status unknown)
(check-sat)
(pop 1)
(push 1)
(assert (= X "mn"))
(set-info :status unknown)
(check-sat)
(pop 1)
(push 1)
(assert (= X "nm"))
(set-info :status unknown)
(check-sat)
(pop 1)
(push 1)
(assert (= X "bn"))
(set-info :status unknown)
(check-sat)
(pop 1)
(push 1)
(assert (= X "nt"))
(set-info :status unknown)
(check-sat)
(assert (distinct Y "nt"))
(set-info :status unknown)
(check-sat)
(pop 1)
(push 1)
(assert (= X "tn"))
(set-info :status unknown)
(check-sat)
(pop 1)
(push 1)
(assert (= X "nb"))
(set-info :status unknown)
(check-sat)
(pop 1)
(set-info :status unknown)
(check-sat)
(exit)
